NAME : X-n237-66-k9
COMMENT : "Generated by Queiroga, Frota, Sadykov, Subramanian, Uchoa and Vidal (2019)" 
TYPE : CVRP
DIMENSION : 237
EDGE_WEIGHT_TYPE : EUC_2D
CAPACITY : 18
NODE_COORD_SECTION
1 -1 0 0
2 0 80 386
3 0 521 652
4 0 597 936
5 0 836 69
6 0 503 987
7 0 618 169
8 0 115 662
9 0 312 175
10 0 78 83
11 0 364 317
12 0 12 454
13 0 980 537
14 0 403 383
15 0 144 443
16 0 739 464
17 0 886 511
18 0 904 106
19 0 794 539
20 0 821 608
21 0 781 347
22 0 336 490
23 0 101 736
24 0 365 68
25 0 618 684
26 0 282 286
27 0 311 806
28 0 557 793
29 0 54 50
30 0 651 264
31 0 619 661
32 0 156 994
33 0 950 369
34 0 183 707
35 0 673 856
36 0 5 651
37 0 867 449
38 0 946 914
39 0 75 82
40 0 522 8
41 0 573 493
42 0 833 699
43 0 881 677
44 0 201 77
45 0 536 593
46 0 67 895
47 0 99 113
48 0 120 133
49 0 428 231
50 0 701 845
51 0 190 508
52 0 431 218
53 0 626 782
54 0 113 914
55 0 569 117
56 0 865 639
57 0 708 9
58 0 511 977
59 0 104 838
60 0 229 467
61 0 956 568
62 0 431 929
63 0 615 707
64 0 913 42
65 0 854 504
66 0 236 176
67 0 377 404
68 0 380 468
69 0 590 752
70 0 620 146
71 0 616 746
72 0 675 114
73 0 556 640
74 0 99 777
75 0 12 194
76 0 920 116
77 0 846 384
78 0 525 23
79 0 199 348
80 0 813 875
81 0 757 593
82 0 573 358
83 0 264 448
84 0 132 556
85 0 289 765
86 0 246 267
87 0 245 876
88 0 235 592
89 0 648 790
90 0 378 754
91 0 636 653
92 0 555 181
93 0 738 446
94 0 130 836
95 0 882 942
96 0 102 787
97 0 669 905
98 0 490 45
99 0 883 547
100 0 971 638
101 0 256 227
102 0 775 935
103 0 489 411
104 0 826 228
105 0 514 866
106 0 129 566
107 0 7 118
108 0 415 820
109 0 161 160
110 0 27 21
111 0 695 395
112 0 64 937
113 0 121 847
114 0 770 896
115 0 264 607
116 0 174 871
117 0 20 546
118 0 986 803
119 0 379 259
120 0 728 180
121 0 686 273
122 0 133 869
123 0 157 499
124 0 784 186
125 0 649 934
126 0 999 236
127 0 670 615
128 0 978 479
129 0 646 823
130 0 193 565
131 0 440 534
132 0 26 411
133 0 114 126
134 0 661 528
135 0 946 326
136 0 223 602
137 0 695 420
138 0 172 317
139 0 116 701
140 0 940 438
141 0 732 172
142 0 824 136
143 0 837 507
144 0 125 570
145 0 773 241
146 0 542 708
147 0 441 235
148 0 808 413
149 0 68 374
150 0 582 768
151 0 220 519
152 0 593 651
153 0 71 712
154 0 26 569
155 0 918 629
156 0 165 731
157 0 941 282
158 1 285 379
159 1 227 977
160 1 788 366
161 1 33 507
162 1 597 983
163 1 299 617
164 1 799 35
165 1 414 697
166 1 529 178
167 1 235 743
168 1 118 484
169 1 349 554
170 1 477 280
171 1 591 189
172 1 743 221
173 1 807 670
174 1 163 621
175 1 874 932
176 1 245 24
177 1 960 27
178 1 139 44
179 1 45 584
180 1 281 434
181 1 684 501
182 1 284 414
183 1 20 905
184 1 80 256
185 1 57 354
186 1 306 107
187 1 167 289
188 1 952 66
189 1 862 741
190 1 240 516
191 1 806 277
192 1 782 700
193 1 82 208
194 1 951 550
195 1 710 44
196 1 537 764
197 1 407 191
198 1 629 133
199 1 608 911
200 1 760 125
201 1 727 517
202 1 295 706
203 1 679 836
204 1 73 420
205 1 637 903
206 1 297 723
207 1 55 920
208 1 676 550
209 1 933 456
210 1 812 155
211 1 326 903
212 1 846 181
213 1 116 175
214 1 344 992
215 1 28 667
216 1 439 245
217 1 891 450
218 1 224 732
219 1 156 734
220 1 390 441
221 1 663 560
222 1 115 896
223 1 655 766
224 1 210 731
225 1 42 176
226 1 505 517
227 1 923 66
228 1 490 844
229 1 342 859
230 1 210 644
231 1 313 79
232 1 399 775
233 1 79 559
234 1 876 843
235 1 631 889
236 1 182 284
237 1 471 120
DEMAND_SECTION
1 0
2 1
3 1
4 1
5 1
6 1
7 1
8 1
9 1
10 1
11 1
12 1
13 1
14 1
15 1
16 1
17 1
18 1
19 1
20 1
21 1
22 1
23 1
24 1
25 1
26 1
27 1
28 1
29 1
30 1
31 1
32 1
33 1
34 1
35 1
36 1
37 1
38 1
39 1
40 1
41 1
42 1
43 1
44 1
45 1
46 1
47 1
48 1
49 1
50 1
51 1
52 1
53 1
54 1
55 1
56 1
57 1
58 1
59 1
60 1
61 1
62 1
63 1
64 1
65 1
66 1
67 1
68 1
69 1
70 1
71 1
72 1
73 1
74 1
75 1
76 1
77 1
78 1
79 1
80 1
81 1
82 1
83 1
84 1
85 1
86 1
87 1
88 1
89 1
90 1
91 1
92 1
93 1
94 1
95 1
96 1
97 1
98 1
99 1
100 1
101 1
102 1
103 1
104 1
105 1
106 1
107 1
108 1
109 1
110 1
111 1
112 1
113 1
114 1
115 1
116 1
117 1
118 1
119 1
120 1
121 1
122 1
123 1
124 1
125 1
126 1
127 1
128 1
129 1
130 1
131 1
132 1
133 1
134 1
135 1
136 1
137 1
138 1
139 1
140 1
141 1
142 1
143 1
144 1
145 1
146 1
147 1
148 1
149 1
150 1
151 1
152 1
153 1
154 1
155 1
156 1
157 1
158 1
159 1
160 1
161 1
162 1
163 1
164 1
165 1
166 1
167 1
168 1
169 1
170 1
171 1
172 1
173 1
174 1
175 1
176 1
177 1
178 1
179 1
180 1
181 1
182 1
183 1
184 1
185 1
186 1
187 1
188 1
189 1
190 1
191 1
192 1
193 1
194 1
195 1
196 1
197 1
198 1
199 1
200 1
201 1
202 1
203 1
204 1
205 1
206 1
207 1
208 1
209 1
210 1
211 1
212 1
213 1
214 1
215 1
216 1
217 1
218 1
219 1
220 1
221 1
222 1
223 1
224 1
225 1
226 1
227 1
228 1
229 1
230 1
231 1
232 1
233 1
234 1
235 1
236 1
237 1
DEPOT_SECTION
1
-1
EOF
